//OMAC CPLEX Data file

S = 4 ;
N = 15 ;
F = 3 ;
L = 18 ;


servers_Names = ['PopEvry', 'PopParis', 'PopSaclay', 'PopOrly'];
clients_Names = ['eNodeB12', 'eNodeB11', 'eNodeB10', 'HomeBox8', 'HomeBox7', 'eNodeB484', 'eNodeB98', 'eNodeB13', 'Clients12', 'Clients11', 'Clients10', 'Clients8', 'Clients7', 'Clients9', 'Clients5'];
vcdns_Names = ['NetFlix', 'TF1', 'HBO'];
locations_Names = ['Evry', 'Paris', 'Saclay', 'Issy', 'Chatillon', 'Boulogne', 'Versailles', 'Antony', 'Palaiseau', 'Orly', 'Melun', 'Corbeille', 'Argenteuil', 'Creteil', 'Ivry-sur-Seine', 'Poissy', 'Limours', 'Sarcelles'];


D = [10000, 10000, 10000, 10000];


volume = [860, 235, 235, 127];


size_of = [60, 20, 20];


serverLocation = [0, 1, 2, 9];


clientLocation = [16, 6, 14, 7, 12, 7, 12, 8, 7, 15, 13, 11, 14, 11, 13];


serverOf = [2, 3, 0];


d = [
[0, 15.4729, 0] ,
[0, 0, 12.0] ,
[18.1691, 14.8962, 15.0056] ,
[18.4917, 0, 0] ,
[0, 9.84493, 5.48288] ,
[4.03052, 0, 3.5] ,
[0, 5.96753, 6.23739] ,
[5.18456, 3.53236, 0] ,
[4.84236, 0, 7.90868] ,
[0, 0, 0.756698] ,
[0, 9.46426, 0] ,
[5.94264, 4.8, 0] ,
[5.4, 0, 0] ,
[0, 19.3834, 0] ,
[0, 6.63285, 10.9198] ,
];


C = [
[0, 44, 35, 37, 0, 0, 0, 0, 0, 40, 0, 0, 0, 0, 0, 0, 0, 0] ,
[44, 0, 40, 0, 87, 52, 28, 0, 0, 0, 0, 0, 0, 0, 0, 0, 0, 0] ,
[35, 40, 0, 0, 0, 0, 0, 35, 40, 17, 0, 0, 0, 0, 0, 0, 0, 0] ,
[37, 0, 0, 0, 0, 0, 0, 0, 0, 0, 32, 0, 28, 0, 0, 0, 0, 0] ,
[0, 87, 0, 0, 0, 0, 0, 0, 0, 0, 0, 0, 0, 32, 21, 31, 0, 0] ,
[0, 52, 0, 0, 0, 0, 0, 0, 0, 0, 0, 0, 0, 0, 0, 0, 2, 29] ,
[0, 28, 0, 0, 0, 0, 0, 0, 0, 0, 0, 0, 0, 0, 0, 0, 0, 0] ,
[0, 0, 35, 0, 0, 0, 0, 0, 0, 0, 0, 0, 0, 0, 0, 0, 0, 0] ,
[0, 0, 40, 0, 0, 0, 0, 0, 0, 0, 0, 0, 0, 0, 0, 0, 0, 0] ,
[40, 0, 17, 0, 0, 0, 0, 0, 0, 0, 0, 21, 0, 0, 0, 0, 0, 0] ,
[0, 0, 0, 32, 0, 0, 0, 0, 0, 0, 0, 0, 0, 0, 0, 0, 0, 0] ,
[0, 0, 0, 0, 0, 0, 0, 0, 0, 21, 0, 0, 0, 0, 0, 0, 0, 0] ,
[0, 0, 0, 28, 0, 0, 0, 0, 0, 0, 0, 0, 0, 0, 0, 0, 0, 0] ,
[0, 0, 0, 0, 32, 0, 0, 0, 0, 0, 0, 0, 0, 0, 0, 0, 0, 0] ,
[0, 0, 0, 0, 21, 0, 0, 0, 0, 0, 0, 0, 0, 0, 0, 0, 0, 0] ,
[0, 0, 0, 0, 31, 0, 0, 0, 0, 0, 0, 0, 0, 0, 0, 0, 0, 0] ,
[0, 0, 0, 0, 0, 2, 0, 0, 0, 0, 0, 0, 0, 0, 0, 0, 0, 0] ,
[0, 0, 0, 0, 0, 29, 0, 0, 0, 0, 0, 0, 0, 0, 0, 0, 0, 0] ,
];


hopcount = [
[0, 1, 1, 1] ,
[1, 0, 1, 2] ,
[1, 1, 0, 1] ,
[1, 2, 1, 0] ,
];


migrationCostK = [
[1.0, 2.5, 1.0, 1.0] ,
[2.5, 1.0, 1.0, 1.0] ,
[1.0, 1.0, 1.0, 1.0] ,
[1.0, 1.0, 1.0, 1.0] ,
];
